22583.0
1 0 1 0 1 1 1 1 1 0 1 1 1 1 0 1 1 0 0 1 1 1 1 1 1 1 1 1 1 1 
7 19 21 27 2 12 15 27 22 28 4 28 13 13 28 7 13 20 22 0 27 16 5 24 10 27 27 19 29 2 19 19 4 16 27 6 20 8 24 16 7 8 6 4 8 19 13 21 19 20 24 16 24 16 8 6 11 8 22 25 29 0 7 8 13 11 5 19 28 25 7 12 6 8 23 23 20 23 8 16 10 0 26 25 29 13 6 5 27 7 28 6 25 25 2 13 11 6 0 28 28 15 25 7 4 0 4 24 22 13 19 4 27 12 12 8 28 7 0 8 26 11 28 19 26 16 2 11 26 0 28 24 25 20 23 8 13 13 28 10 12 22 11 11 25 5 24 15 27 25 24 0 23 0 8 11 2 15 13 13 13 27 10 24 5 27 5 4 13 21 5 20 19 10 26 2 0 10 29 10 5 21 2 19 12 8 28 23 0 21 2 21 6 4 7 12 7 15 10 19 